nApps = 232
nRes = 9
nActs = 466
nNetworks = 6

assignmentToResources = [1,1,1,1,3,1,1,1,3,1,1,1,2,2,3,1,2,1,1,3,1,2,3,3,3,3,2,2,1,3,3,3,3,1,1,3,1,3,3,3,3,1,2,1,3,1,2,2,3,2,2,3,3,2,3,1,3,1,1,3,1,3,2,2,1,3,2,2,3,1,1,1,2,3,1,2,3,1,3,1,2,3,1,2,3,2,1,2,3,3,1,1,1,3,1,2,3,2,2,3,4,4,4,4,4,4,4,4,4,6,6,6,4,4,4,4,4,4,4,4,4,4,6,4,4,4,4,4,4,5,5,5,5,5,6,6,6,4,4,5,5,5,4,4,4,4,6,4,4,4,4,4,5,5,5,5,5,6,6,6,6,6,6,5,5,5,5,5,6,6,6,6,4,4,4,4,6,6,6,6,4,4,4,4,6,4,5,4,4,6,6,6,4,4,4,4,5,5,5,5,5,5,5,6,5,5,6,6,5,5,5,5,6,4,6,4,4,4,6,5,5,5,4,5,5,5,6,4,4,4,4,4,4,4,6,6,6,4,4,4,6,4,5,5,5,5,6,6,6,6,6,4,4,4,6,6,5,6,5,6,6,5,7,4,9,4,9,6,7,6,7,5,7,4,9,4,9,6,8,5,9,5,7,6,8,5,9,4,9,6,8,5,7,6,8,4,8,5,7,6,8,5,7,5,9,8,8,9,9,9,9,9,9,8,7,7,7,9,9,9,9,9,8,9,8,9,8,8,8,8,8,8,8,9,9,7,7,7,7,7,7,7,8,8,9,7,9,9,9,8,9,7,8,9,9,9,8,9,7,9,9,9,7,8,8,8,8,8,9,9,7,7,9,7,8,7,7,8,8,9,9,7,8,7,7,9,8,9,8,7,9,7,9,8,8,8,7,9,8,8,8,7,7,7,9,9,7,9,8,9,9,8,8,7,9,7,9,8,9,8,9,8,9,7,9,9,9,9,9,9,7,7,9,9,8,9,8,9,8,8,7,7,8,8,8,8,8,7,9,9,9,8,7,7,7,8,8,8,9,7,8,7,8,9,7,7];

processingTimes = [104,104,112,104,48,96,80,136,80,104,128,136,64,152,128,120,104,64,96,152,72,128,112,80,88,160,72,152,136,104,104,128,88,128,120,80,152,104,112,112,120,88,112,128,72,128,136,112,88,120,96,96,104,80,128,144,56,104,88,80,136,112,48,136,120,120,72,72,72,88,128,136,128,112,104,120,64,104,120,136,112,136,80,80,136,80,80,136,144,104,128,168,136,136,112,128,112,152,120,112,500,3,3,3,4,500,4,4,4,3,500,500,4,4,500,4,8,3,500,3,3,3,5,3,4,3,3,4,500,8,5,5,500,4,3,13,3,4,4,4,4,5,5,3,500,500,7,500,3,5,4,4,4,5,3,3,3,3,500,500,3,500,3,500,8,3,3,4,4,5,3,3,500,5,5,4,4,4,500,3,500,500,3,13,3,5,3,4,4,8,8,3,3,3,4,4,3,4,4,4,4,4,500,4,4,3,4,4,3,500,500,4,4,4,8,8,500,500,500,3,3,500,3,4,500,4,4,3,5,5,3,4,500,5,8,3,3,4,4,3,3,500,3,3,3,3,3,5,5,500,13,3,3,500,5,5,3,4,3,5,5,3,3,8,8,4,4,3,3,5,5,8,8,4,4,3,3,8,8,3,3,3,3,3,3,4,4,3,3,13,13,500,500,500,500,500,500,500,500,500,500,500,500,100,100,500,3,3,3,4,500,4,4,4,3,500,500,4,4,500,4,8,3,500,3,3,3,5,3,4,3,3,4,500,8,5,5,500,4,3,13,3,4,4,4,4,5,5,3,500,500,7,500,3,5,4,4,4,5,3,3,3,3,500,500,3,500,3,500,8,3,3,4,4,5,3,3,500,5,5,4,4,4,500,3,500,500,3,13,3,5,3,4,4,8,8,3,3,3,4,4,3,4,4,4,4,4,500,4,4,3,4,4,3,500,500,4,4,4,8,8,500,500,500,3,3,500,3,4,500,4,4,3,5,5,3,4,500,5,8,3,3,4,4,3,3,500,3,3,3,3,3,5,5,500,13,3,3,500,5,5,3,4,3,5,5];

periods = [20000,100000,20000,10000,100000,100000,20000,20000,20000,10000,20000,10000,10000,20000,10000,10000,100000,10000,5000,100000,100000,100000,10000,100000,100000,10000,100000,5000,20000,100000,100000,100000,10000,100000,20000,10000,20000,20000,100000,100000,20000,20000,10000,100000,20000,10000,100000,20000,20000,20000,10000,10000,100000,10000,100000,10000,1000,100000,100000,100000,10000,10000,10000,20000,50000,10000,10000,20000,10000,100000,10000,10000,10000,10000,10000,10000,20000,50000,20000,20000,20000,20000,20000,20000,100000,1000,20000,20000,10000,20000,50000,10000,100000,20000,100000,20000,100000,10000,20000,100000,20000,100000,100000,100000,100000,20000,20000,10000,10000,100000,100000,100000,100000,100000,100000,100000,100000,20000,20000,20000,20000,20000,20000,10000,20000,20000,20000,10000,10000,10000,10000,10000,20000,20000,10000,10000,10000,10000,10000,100000,100000,100000,10000,10000,5000,5000,100000,100000,100000,100000,100000,100000,100000,100000,100000,100000,100000,10000,100000,100000,100000,100000,10000,100000,100000,100000,100000,5000,100000,100000,100000,10000,100000,20000,20000,20000,10000,10000,10000,10000,20000,20000,20000,20000,20000,20000,10000,100000,100000,20000,20000,20000,10000,10000,10000,10000,100000,100000,100000,100000,20000,20000,20000,20000,20000,20000,10000,10000,10000,10000,10000,10000,1000,100000,100000,10000,10000,10000,10000,20000,20000,20000,50000,20000,20000,20000,10000,100000,100000,100000,100000,10000,10000,10000,20000,20000,20000,20000,20000,20000,20000,20000,1000,1000,20000,20000,20000,20000,20000,20000,20000,50000,10000,10000,20000,20000,20000,100000,10000,100000,100000,20000,20000,100000,100000,100000,100000,100000,100000,100000,100000,100000,100000,100000,100000,100000,100000,100000,100000,100000,100000,20000,20000,20000,20000,20000,20000,10000,10000,10000,10000,10000,10000,10000,10000,10000,10000,10000,10000,10000,10000,10000,10000,1000,1000,20000,100000,100000,100000,100000,20000,20000,10000,10000,100000,100000,100000,100000,100000,100000,100000,100000,20000,20000,20000,20000,20000,20000,10000,20000,20000,20000,10000,10000,10000,10000,10000,20000,20000,10000,10000,10000,10000,10000,100000,100000,100000,10000,10000,5000,5000,100000,100000,100000,100000,100000,100000,100000,100000,100000,100000,100000,10000,100000,100000,100000,100000,10000,100000,100000,100000,100000,5000,100000,100000,100000,10000,100000,20000,20000,20000,10000,10000,10000,10000,20000,20000,20000,20000,20000,20000,10000,100000,100000,20000,20000,20000,10000,10000,10000,10000,100000,100000,100000,100000,20000,20000,20000,20000,20000,20000,10000,10000,10000,10000,10000,10000,1000,100000,100000,10000,10000,10000,10000,20000,20000,20000,50000,20000,20000,20000,10000,100000,100000,100000,100000,10000,10000,10000,20000,20000,20000,20000,20000,20000,20000,20000,1000,1000,20000,20000,20000,20000,20000,20000,20000,50000,10000,10000,20000,20000,20000,100000,10000,100000,100000];

assignmentToClusters = [1,2,3,4,5,6,7,8,9,10,11,12,10,1,13,14,5,15,16,5,5,5,14,17,5,18,19,20,21,22,5,23,24,25,26,27,28,8,29,5,30,31,32,33,34,35,36,9,37,38,14,39,5,40,5,32,41,5,42,5,43,44,45,46,47,48,14,49,32,50,14,51,52,53,54,55,56,57,58,59,60,61,62,63,5,41,64,65,10,66,57,67,5,68,5,69,70,71,8,5,72,73,74,75,76,77,78,79,80,81,82,83,84,85,86,87,88,89,90,91,92,93,94,95,96,97,98,99,100,101,102,103,104,105,106,107,108,109,110,111,112,113,114,115,116,117,118,119,120,121,122,123,124,125,126,127,128,129,130,131,132,133,134,135,136,137,138,139,140,141,142,143,144,145,146,147,148,149,150,151,152,153,154,155,156,157,158,159,160,161,162,163,164,165,166,167,168,169,170,171,172,173,174,175,176,177,178,179,180,181,182,183,184,185,186,187,188,189,190,191,192,193,194,195,196,197,198,199,200,201,202,203,204,205,206,207,208,209,210,211,212,213,214,215,216,217,218,219,220,221,222,223,224,225,226,227,228,229,230,231,232,1,1,5,5,5,5,5,5,5,5,5,5,5,5,5,5,5,5,5,5,8,8,8,8,9,9,10,10,10,10,14,14,14,14,14,14,14,14,32,32,32,32,41,41,72,73,74,75,76,77,78,79,80,81,82,83,84,85,86,87,88,89,90,91,92,93,94,95,96,97,98,99,100,101,102,103,104,105,106,107,108,109,110,111,112,113,114,115,116,117,118,119,120,121,122,123,124,125,126,127,128,129,130,131,132,133,134,135,136,137,138,139,140,141,142,143,144,145,146,147,148,149,150,151,152,153,154,155,156,157,158,159,160,161,162,163,164,165,166,167,168,169,170,171,172,173,174,175,176,177,178,179,180,181,182,183,184,185,186,187,188,189,190,191,192,193,194,195,196,197,198,199,200,201,202,203,204,205,206,207,208,209,210,211,212,213,214,215,216,217,218,219,220,221,222,223,224,225,226,227,228,229,230,231,232];

precedenceAdjList = [[262],[],[],[],[52],[],[],[282],[286],[],[],[],[290],[],[],[292],[278],[],[],[],[],[],[],[],[99],[],[],[],[],[],[39],[],[],[],[],[],[],[],[],[264,266],[],[],[300],[],[],[],[],[],[],[],[294],[],[19,54],[],[39],[302],[304],[],[],[274,276],[],[],[],[],[],[],[296],[],[],[],[298],[],[],[],[],[],[],[90],[],[],[],[],[],[],[280],[],[],[],[288],[],[],[],[268],[],[270,272],[],[],[],[284],[],[],[],[],[],[],[],[],[],[],[],[],[],[],[],[],[],[],[],[],[],[],[],[],[],[],[],[],[],[],[],[],[],[],[],[],[],[],[],[],[],[],[],[],[],[],[],[],[],[],[],[],[],[],[],[],[],[],[],[],[],[],[],[],[],[],[],[],[],[],[],[],[],[],[],[],[],[],[],[],[],[],[],[],[],[],[],[],[],[],[],[],[],[],[],[],[],[],[],[],[],[],[],[],[],[],[],[],[],[],[],[],[],[],[],[],[],[],[],[],[],[],[],[],[],[],[],[],[],[],[],[],[],[],[],[],[],[],[],[],[],[],[],[],[],[],[],[],[],[],[],[],[],[],[],[],[],[],[],[],[],[],[13],[261],[92],[263],[57],[265],[24],[267],[30],[269],[21],[271],[94],[273],[20],[275],[59],[277],[16],[279],[98],[281],[37],[283],[47],[285],[9],[287],[88],[289],[50],[291],[22],[293],[15],[295],[66],[297],[68],[299],[42],[301],[85],[303],[100],[101],[102],[103],[104],[105],[106],[107],[108],[109],[110],[111],[112],[113],[114],[115],[116],[117],[118],[119],[120],[121],[122],[123],[124],[125],[126],[127],[128],[129],[130],[131],[132],[133],[134],[135],[136],[137],[138],[139],[140],[141],[142],[143],[144],[145],[146],[147],[148],[149],[150],[151],[152],[153],[154],[155],[156],[157],[158],[159],[160],[161],[162],[163],[164],[165],[166],[167],[168],[169],[170],[171],[172],[173],[174],[175],[176],[177],[178],[179],[180],[181],[182],[183],[184],[185],[186],[187],[188],[189],[190],[191],[192],[193],[194],[195],[196],[197],[198],[199],[200],[201],[202],[203],[204],[205],[206],[207],[208],[209],[210],[211],[212],[213],[214],[215],[216],[217],[218],[219],[220],[221],[222],[223],[224],[225],[226],[227],[228],[229],[230],[231],[232],[233],[234],[235],[236],[237],[238],[239],[240],[241],[242],[243],[244],[245],[246],[247],[248],[249],[250],[251],[252],[253],[254],[255],[256],[257],[258],[259],[260]];